c 
p cnf 116 190
13 14 -16 0
20 -18 21 0
-21 8 22 0
-22 -4 -16 0
-2 -1 7 0
6 23 24 0
6 23 -24 0
6 -23 24 0
6 -23 -24 0
18 -3 -19 0
9 10 25 0
-25 1 4 0
6 18 26 0
6 18 -26 0
-14 20 -15 0
-11 19 27 0
-27 -15 28 0
-28 17 16 0
4 19 29 0
4 19 -29 0
5 2 30 0
5 2 -30 0
-8 14 -12 0
-8 19 11 0
-9 -12 31 0
-9 -12 -31 0
-15 -18 32 0
-32 1 -9 0
15 -14 33 0
-33 -12 34 0
-34 -2 -18 0
11 -10 -9 0
3 -6 35 0
3 -6 -35 0
9 -15 36 0
-36 -20 37 0
-37 13 -12 0
-8 10 38 0
-38 15 12 0
11 16 39 0
-39 9 40 0
-40 1 3 0
6 -19 41 0
-41 18 42 0
-42 8 -7 0
15 2 43 0
15 2 -43 0
-5 -19 44 0
-44 4 10 0
14 15 45 0
-45 -11 46 0
-46 -17 -6 0
7 -4 -8 0
-1 2 19 0
-20 8 47 0
-47 10 48 0
-48 -15 7 0
-17 49 50 0
-17 49 -50 0
-17 -49 50 0
-17 -49 -50 0
-13 16 51 0
-13 16 -51 0
-2 4 -6 0
-10 52 53 0
-10 52 -53 0
-10 -52 53 0
-10 -52 -53 0
7 -5 54 0
7 -5 -54 0
-3 -14 55 0
-55 -13 -19 0
9 -14 56 0
-56 2 57 0
-57 -4 -17 0
-16 58 59 0
-16 58 -59 0
-16 -58 59 0
-16 -58 -59 0
17 -1 60 0
-60 -18 5 0
16 61 62 0
16 61 -62 0
16 -61 62 0
16 -61 -62 0
7 13 63 0
-63 -4 -19 0
1 -19 64 0
-64 8 -20 0
1 65 66 0
1 65 -66 0
1 -65 66 0
1 -65 -66 0
20 8 67 0
20 8 -67 0
8 7 68 0
8 7 -68 0
-15 1 69 0
-69 6 70 0
-70 11 4 0
8 71 72 0
8 71 -72 0
8 -71 72 0
8 -71 -72 0
-6 -15 73 0
-73 11 74 0
-74 18 -20 0
-16 -5 75 0
-16 -5 -75 0
5 76 77 0
5 76 -77 0
5 -76 77 0
5 -76 -77 0
-16 19 78 0
-16 19 -78 0
2 -14 79 0
2 -14 -79 0
-12 80 81 0
-12 80 -81 0
-12 -80 81 0
-12 -80 -81 0
16 9 82 0
-82 20 83 0
-83 -3 -2 0
1 8 84 0
-84 -15 -6 0
2 15 85 0
-85 -3 17 0
-7 8 86 0
-7 8 -86 0
15 87 88 0
15 87 -88 0
15 -87 88 0
15 -87 -88 0
11 3 89 0
11 3 -89 0
-2 14 90 0
-90 7 91 0
-91 -15 20 0
16 -19 92 0
-92 9 93 0
-93 -18 15 0
-18 16 94 0
-18 16 -94 0
-5 -8 95 0
-95 4 -12 0
1 -15 96 0
-96 9 -14 0
-9 13 97 0
-97 -10 98 0
-98 -4 12 0
-11 14 -8 0
-16 8 99 0
-99 1 19 0
20 -1 100 0
-100 5 -3 0
-2 -1 101 0
-101 13 20 0
9 -16 102 0
-102 -2 -6 0
16 -13 10 0
15 12 103 0
15 12 -103 0
17 104 105 0
17 104 -105 0
17 -104 105 0
17 -104 -105 0
-16 -17 5 0
-14 106 107 0
-14 106 -107 0
-14 -106 107 0
-14 -106 -107 0
-8 108 109 0
-8 108 -109 0
-8 -108 109 0
-8 -108 -109 0
7 5 110 0
-110 1 -6 0
2 17 111 0
-111 1 112 0
-112 5 13 0
-16 9 113 0
-113 -3 20 0
8 4 -16 0
9 2 114 0
9 2 -114 0
13 115 116 0
13 115 -116 0
13 -115 116 0
13 -115 -116 0
